NAME : rnd36_20.tsp
TYPE : TSP
DIMENSION : 20
EDGE_WEIGHT_TYPE : EUC_2D
NODE_COORD_SECTION
0 28 510
1 370 617
2 298 595
3 855 792
4 23 343
5 482 804
6 530 795
7 903 592
8 662 280
9 598 465
10 79 176
11 166 864
12 714 3
13 304 778
14 534 603
15 360 876
16 191 538
17 459 669
18 854 194
19 182 916
